CMPL model generation - running

CMPL version: 1.11.0
Authors: Thomas Schleiff, Mike Steglich
Distributed under the GPLv3 

create model instance ...
write model instance ...
CMPL model generation - finished

Solver - running


Welcome to IBM(R) ILOG(R) CPLEX(R) Interactive Optimizer 12.7.1.0
  with Simplex, Mixed Integer & Barrier Optimizers
5725-A06 5725-A29 5724-Y48 5724-Y49 5724-Y54 5724-Y55 5655-Y21
Copyright IBM Corp. 1988, 2017.  All Rights Reserved.

Type 'help' for a list of available commands.
Type 'help' followed by a command name for more
information on commands.

CPLEX> Specified objective sense: MINIMIZE
Selected objective  name:  line[1]
Selected RHS        name:  RHS
Selected bound      name:  BOUND
Problem '/tmp/cmpl.T15175.mps' read.
Read time = 0.06 sec. (10.22 ticks)
CPLEX> CPXPARAM_Read_APIEncoding                        "UTF-8"
Tried aggregator 3 times.
MIP Presolve eliminated 22975 rows and 35526 columns.
MIP Presolve modified 619 coefficients.
Aggregator did 1762 substitutions.
Reduced MIP has 3185 rows, 5167 columns, and 15315 nonzeros.
Reduced MIP has 4957 binaries, 0 generals, 0 SOSs, and 0 indicators.
Presolve time = 0.08 sec. (55.86 ticks)
Found incumbent of value 4657.136185 after 0.18 sec. (117.02 ticks)
Probing time = 0.01 sec. (2.76 ticks)
Tried aggregator 1 time.
MIP Presolve eliminated 0 rows and 65 columns.
Reduced MIP has 3185 rows, 5102 columns, and 15185 nonzeros.
Reduced MIP has 5102 binaries, 0 generals, 0 SOSs, and 0 indicators.
Presolve time = 0.02 sec. (14.12 ticks)
Probing time = 0.01 sec. (2.97 ticks)
Clique table members: 4437.
MIP emphasis: balance optimality and feasibility.
MIP search method: dynamic search.
Parallel mode: none, using 1 thread.
Root relaxation solution time = 0.03 sec. (19.40 ticks)

        Nodes                                         Cuts/
   Node  Left     Objective  IInf  Best Integer    Best Bound    ItCnt     Gap

*     0+    0                         4657.1362        0.0000           100.00%
*     0     0      integral     0     2173.8857     2173.8857     1103    0.00%
Elapsed time = 0.26 sec. (166.69 ticks, tree = 0.00 MB, solutions = 2)

Root node processing (before b&c):
  Real time             =    0.26 sec. (168.27 ticks)
Sequential b&c:
  Real time             =    0.00 sec. (0.00 ticks)
                          ------------
Total (root+branch&cut) =    0.26 sec. (168.27 ticks)

Solution pool: 2 solutions saved.

MIP - Integer optimal solution:  Objective =  2.1738856880e+03
Solution time =    0.26 sec.  Iterations = 1103  Nodes = 0
Deterministic time = 168.39 ticks  (646.33 ticks/sec)

CPLEX> Incumbent solution written to file '/tmp/cmpl.T15175.gsol'.
CPLEX> 
CMPL: Time used for model generation: 1 seconds
CMPL: Time used for solving the model: 1 seconds


Solution written to ASCII file: results/output_generated/2016-08-01-5/fair-nonlinear.sol

Solver - finished
